(set-logic QF_NRA)
(set-info :source | Produced by Alexander Wiegel |)
(set-info :smt-lib-version 2.0)
(declare-fun x () Real)
(declare-fun y () Real)
(assert (exists ((z Real)) (and (>=  (+ (+ z z) x) 0.5) (>=  (- (+ z z) y) 0.5) (> z x) (< z y))))
(check-sat)
